2QBF2016/2QBF/query31_query26_1344n.qdimacs
p cnf 381 609
a 17 18 19 20 21 22 23 24 25 26 27 28 29 30 31 32 33 34 35 36 37 38 39 40 41 42 43 44 45 46 47 48 49 50 51 52 0
e 1 2 3 4 5 6 7 8 9 10 11 12 13 14 15 16 53 54 55 56 57 58 59 60 61 62 63 64 65 66 67 68 69 70 71 72 73 74 75 76 77 78 79 80 81 82 83 84 85 86 87 88 89 90 91 92 93 94 95 96 97 98 99 100 101 102 103 104 105 106 107 108 109 110 111 112 113 114 115 116 117 118 119 120 121 122 123 124 125 126 127 128 129 130 131 132 133 134 135 136 137 138 139 140 141 142 143 144 145 146 147 148 149 150 151 152 153 154 155 156 157 158 159 160 161 162 163 164 165 166 167 168 169 170 171 172 173 174 175 176 177 178 179 180 181 182 183 184 185 186 187 188 189 190 191 192 193 194 195 196 197 198 199 200 201 202 203 204 205 206 207 208 209 210 211 212 213 214 215 216 217 218 219 220 221 222 223 224 225 226 227 228 229 230 231 232 233 234 235 236 237 238 239 240 241 242 243 244 245 246 247 248 249 250 251 252 253 254 255 256 257 258 259 260 261 262 263 264 265 266 267 268 269 270 271 272 273 274 275 276 277 278 279 280 281 282 283 284 285 286 287 288 289 290 291 292 293 294 295 296 297 298 299 300 301 302 303 304 305 306 307 308 309 310 311 312 313 314 315 316 317 318 319 320 321 322 323 324 325 326 327 328 329 330 331 332 333 334 335 336 337 338 339 340 341 342 343 344 345 346 347 348 349 350 351 352 353 354 355 356 357 358 359 360 361 362 363 364 365 366 367 368 369 370 371 372 373 374 375 376 377 378 379 380 381 0
-381 0
381 -217 0
381 -380 0
16 15 14 1 -379 -358 -337 -330 -322 -307 -298 -282 -259 -238 380 0
379 -368 0
379 -378 0
-377 -374 -371 378 0
377 -375 0
377 -376 0
377 -26 0
377 -25 0
-1 -28 376 0
-27 1 375 0
374 -372 0
374 -373 0
374 -22 0
374 -21 0
-23 1 373 0
-1 -24 372 0
371 -369 0
371 -370 0
371 -18 0
371 -17 0
-1 -20 370 0
-19 1 369 0
-367 -364 -361 368 0
367 -365 0
367 -366 0
367 -38 0
367 -37 0
-1 -40 366 0
-39 1 365 0
364 -362 0
364 -363 0
364 -34 0
364 -33 0
-35 1 363 0
-1 -36 362 0
361 -359 0
361 -360 0
361 -30 0
361 -29 0
-1 -32 360 0
-31 1 359 0
358 -347 0
358 -357 0
-356 -353 -350 357 0
356 -354 0
356 -355 0
356 -49 0
356 -43 0
-16 -28 355 0
-27 16 354 0
353 -351 0
353 -352 0
353 -48 0
353 -42 0
-16 -24 352 0
-23 16 351 0
350 -348 0
350 -349 0
350 -47 0
350 -41 0
-16 -20 349 0
-19 16 348 0
-346 -343 -340 347 0
346 -344 0
346 -345 0
346 -52 0
346 -46 0
-16 -40 345 0
-39 16 344 0
343 -341 0
343 -342 0
343 -51 0
343 -45 0
-16 -36 342 0
-35 16 341 0
340 -338 0
340 -339 0
340 -50 0
340 -44 0
-16 -32 339 0
-31 16 338 0
337 -333 0
337 -336 0
9 -316 -315 -335 -334 336 0
335 -326 0
335 4 0
334 -313 0
334 8 0
11 -292 -291 -332 -331 333 0
332 -303 0
332 6 0
331 -289 0
331 10 0
330 -325 0
330 -329 0
5 -312 -311 -328 -327 329 0
328 -317 0
328 3 0
327 -326 0
327 2 0
13 -320 -319 326 0
10 -265 -324 -323 -264 325 0
324 -262 0
324 11 0
323 -299 0
323 6 0
322 -310 0
322 -321 0
13 -320 -319 -318 -314 321 0
320 12 0
320 9 0
319 5 0
319 7 0
318 -317 0
318 12 0
9 -316 -315 317 0
316 8 0
316 5 0
315 4 0
315 13 0
314 -313 0
314 7 0
5 -312 -311 313 0
312 3 0
312 9 0
311 2 0
311 13 0
6 -276 -275 -309 -308 310 0
309 -273 0
309 11 0
308 -283 0
308 10 0
307 -302 0
307 -306 0
3 -288 -287 -305 -304 306 0
305 -293 0
305 5 0
304 -303 0
304 2 0
12 -296 -295 303 0
8 -261 -260 -301 -300 302 0
301 -266 0
301 9 0
300 -299 0
300 4 0
7 -269 -268 299 0
298 -286 0
298 -297 0
12 -296 -295 -294 -290 297 0
296 11 0
296 13 0
295 3 0
295 7 0
294 -293 0
294 13 0
11 -292 -291 293 0
292 12 0
292 6 0
291 3 0
291 10 0
290 -289 0
290 7 0
3 -288 -287 289 0
288 11 0
288 5 0
287 2 0
287 12 0
4 -272 -271 -285 -284 286 0
285 -277 0
285 9 0
284 -283 0
284 8 0
2 -280 -279 283 0
282 -270 0
282 -281 0
2 -280 -279 -278 -274 281 0
280 6 0
280 5 0
279 3 0
279 4 0
278 -277 0
278 5 0
6 -276 -275 277 0
276 2 0
276 10 0
275 11 0
275 4 0
274 -273 0
274 3 0
4 -272 -271 273 0
272 6 0
272 9 0
271 2 0
271 8 0
7 -269 -268 -267 -263 270 0
269 10 0
269 13 0
268 12 0
268 8 0
267 -266 0
267 13 0
10 -265 -264 266 0
265 11 0
265 8 0
264 6 0
264 7 0
263 -262 0
263 12 0
8 -261 -260 262 0
261 4 0
261 7 0
260 10 0
260 9 0
259 -248 0
259 -258 0
-257 -254 -251 258 0
257 -255 0
257 -256 0
257 -43 0
257 -26 0
-27 14 256 0
-14 -28 255 0
254 -252 0
254 -253 0
254 -42 0
254 -22 0
-23 14 253 0
-14 -24 252 0
251 -249 0
251 -250 0
251 -41 0
251 -18 0
-14 -20 250 0
-19 14 249 0
-247 -244 -241 248 0
247 -245 0
247 -246 0
247 -46 0
247 -38 0
-39 14 246 0
-14 -40 245 0
244 -242 0
244 -243 0
244 -45 0
244 -34 0
-35 14 243 0
-14 -36 242 0
241 -239 0
241 -240 0
241 -44 0
241 -30 0
-14 -32 240 0
-31 14 239 0
238 -227 0
238 -237 0
-236 -233 -230 237 0
236 -234 0
236 -43 0
236 -235 0
236 -26 0
-15 -28 235 0
-27 15 234 0
233 -231 0
233 -232 0
233 -42 0
233 -22 0
-23 15 232 0
-15 -24 231 0
230 -228 0
230 -229 0
230 -41 0
230 -18 0
-19 15 229 0
-15 -20 228 0
-226 -223 -220 227 0
226 -224 0
226 -225 0
226 -46 0
226 -38 0
-39 15 225 0
-15 -40 224 0
223 -221 0
223 -222 0
223 -45 0
223 -34 0
-35 15 222 0
-15 -36 221 0
220 -218 0
220 -219 0
220 -44 0
220 -30 0
-31 15 219 0
-15 -32 218 0
-216 -137 217 0
216 -160 0
216 -176 0
216 -185 0
216 -200 0
216 -208 0
216 -215 0
216 -16 0
216 -15 0
216 -14 0
216 -1 0
-214 -211 215 0
214 -212 0
214 -213 0
214 -186 0
214 -187 0
214 -6 0
-10 -205 213 0
-11 -192 212 0
211 -209 0
211 -138 0
211 -210 0
211 -139 0
211 -13 0
-7 -144 210 0
-12 -177 209 0
-207 -203 208 0
207 -204 0
207 -206 0
207 -190 0
207 -191 0
207 -4 0
-8 -205 206 0
205 -194 0
205 -195 0
205 -2 0
-9 -188 204 0
203 -201 0
203 -149 0
203 -150 0
203 -202 0
203 -12 0
-7 -155 202 0
-13 -161 201 0
-199 -196 200 0
199 -197 0
199 -198 0
199 -169 0
199 -170 0
199 -7 0
-12 -181 198 0
-13 -167 197 0
196 -189 0
196 -193 0
196 -194 0
196 -195 0
196 -2 0
-5 -6 195 0
-3 -4 194 0
-3 -192 193 0
192 -190 0
192 -191 0
192 -4 0
-6 -9 191 0
-2 -8 190 0
-5 -188 189 0
188 -186 0
188 -187 0
188 -6 0
-2 -10 187 0
-4 -11 186 0
-184 -180 185 0
184 -182 0
184 -183 0
184 -165 0
184 -166 0
184 -10 0
-6 -171 183 0
-11 -181 182 0
181 -173 0
181 -174 0
181 -8 0
180 -178 0
180 -179 0
180 -142 0
180 -143 0
180 -5 0
-2 -140 179 0
-3 -177 178 0
177 -146 0
177 -147 0
177 -9 0
-175 -164 176 0
175 -168 0
175 -172 0
175 -173 0
175 -174 0
175 -8 0
-4 -7 174 0
-9 -10 173 0
-4 -171 172 0
171 -169 0
171 -170 0
171 -7 0
-10 -13 170 0
-8 -12 169 0
-9 -167 168 0
167 -165 0
167 -166 0
167 -10 0
-8 -11 166 0
-6 -7 165 0
164 -162 0
164 -163 0
164 -153 0
164 -154 0
164 -3 0
-2 -151 163 0
-5 -161 162 0
161 -157 0
161 -158 0
161 -11 0
-159 -148 160 0
159 -152 0
159 -156 0
159 -157 0
159 -158 0
159 -11 0
-6 -12 158 0
-3 -10 157 0
-10 -155 156 0
155 -153 0
155 -154 0
155 -3 0
-5 -11 154 0
-2 -12 153 0
-6 -151 152 0
151 -149 0
151 -150 0
151 -12 0
-3 -7 150 0
-11 -13 149 0
148 -141 0
148 -145 0
148 -146 0
148 -147 0
148 -9 0
-5 -8 147 0
-4 -13 146 0
-8 -144 145 0
144 -142 0
144 -143 0
144 -5 0
-3 -9 143 0
-2 -13 142 0
-4 -140 141 0
140 -138 0
140 -139 0
140 -13 0
-9 -12 139 0
-5 -7 138 0
137 -73 0
137 -94 0
137 -115 0
137 -136 0
-135 -125 136 0
135 -128 0
135 -131 0
135 -134 0
38 37 -133 -132 134 0
133 40 0
133 1 0
132 39 0
132 -1 0
33 34 -130 -129 131 0
130 35 0
130 -1 0
129 36 0
129 1 0
30 29 -127 -126 128 0
127 32 0
127 1 0
126 31 0
126 -1 0
125 -118 0
125 -121 0
125 -124 0
25 26 -123 -122 124 0
123 28 0
123 1 0
122 27 0
122 -1 0
22 21 -120 -119 121 0
120 23 0
120 -1 0
119 1 0
119 24 0
18 17 -117 -116 118 0
117 1 0
117 20 0
116 19 0
116 -1 0
-114 -104 115 0
114 -107 0
114 -110 0
114 -113 0
52 46 -112 -111 113 0
112 40 0
112 16 0
111 39 0
111 -16 0
51 45 -109 -108 110 0
109 36 0
109 16 0
108 35 0
108 -16 0
50 44 -106 -105 107 0
106 32 0
106 16 0
105 31 0
105 -16 0
104 -97 0
104 -100 0
104 -103 0
49 43 -102 -101 103 0
102 28 0
102 16 0
101 27 0
101 -16 0
48 42 -99 -98 100 0
99 16 0
99 24 0
98 23 0
98 -16 0
47 41 -96 -95 97 0
96 16 0
96 20 0
95 19 0
95 -16 0
-93 -83 94 0
93 -86 0
93 -89 0
93 -92 0
38 46 -91 -90 92 0
91 39 0
91 -14 0
90 40 0
90 14 0
34 45 -88 -87 89 0
88 35 0
88 -14 0
87 36 0
87 14 0
30 44 -85 -84 86 0
85 32 0
85 14 0
84 31 0
84 -14 0
83 -76 0
83 -79 0
83 -82 0
26 43 -81 -80 82 0
81 27 0
81 -14 0
80 28 0
80 14 0
22 42 -78 -77 79 0
78 23 0
78 -14 0
77 14 0
77 24 0
18 41 -75 -74 76 0
75 14 0
75 20 0
74 19 0
74 -14 0
-72 -62 73 0
72 -65 0
72 -68 0
72 -71 0
38 46 -70 -69 71 0
70 39 0
70 -15 0
69 40 0
69 15 0
34 45 -67 -66 68 0
67 35 0
67 -15 0
66 36 0
66 15 0
30 44 -64 -63 65 0
64 31 0
64 -15 0
63 32 0
63 15 0
62 -55 0
62 -58 0
62 -61 0
26 -60 43 -59 61 0
60 28 0
60 15 0
59 27 0
59 -15 0
22 42 -57 -56 58 0
57 23 0
57 -15 0
56 15 0
56 24 0
18 41 -54 -53 55 0
54 19 0
54 -15 0
53 15 0
53 20 0
