compilationRealizabilityWitnesses/NOTSresults/query31_query26_1344n.out
RESOLVING Scope: 1 2 3 4 5 6 7 8 9 10 11 12 13 14 15 16 53 54 55 56 57 58 59 60 61 62 63 64 65 66 67 68 69 70 71 72 73 74 75 76 77 78 79 80 81 82 83 84 85 86 87 88 89 90 91 92 93 94 95 96 97 98 99 100 101 102 103 104 105 106 107 108 109 110 111 112 113 114 115 116 117 118 119 120 121 122 123 124 125 126 127 128 129 130 131 132 133 134 135 136 137 138 139 140 141 142 143 144 145 146 147 148 149 150 151 152 153 154 155 156 157 158 159 160 161 162 163 164 165 166 167 168 169 170 171 172 173 174 175 176 177 178 179 180 181 182 183 184 185 186 187 188 189 190 191 192 193 194 195 196 197 198 199 200 201 202 203 204 205 206 207 208 209 210 211 212 213 214 215 216 217 218 219 220 221 222 223 224 225 226 227 228 229 230 231 232 233 234 235 236 237 238 239 240 241 242 243 244 245 246 247 248 249 250 251 252 253 254 255 256 257 258 259 260 261 262 263 264 265 266 267 268 269 270 271 272 273 274 275 276 277 278 279 280 281 282 283 284 285 286 287 288 289 290 291 292 293 294 295 296 297 298 299 300 301 302 303 304 305 306 307 308 309 310 311 312 313 314 315 316 317 318 319 320 321 322 323 324 325 326 327 328 329 330 331 332 333 334 335 336 337 338 339 340 341 342 343 344 345 346 347 348 349 350 351 352 353 354 355 356 357 358 359 360 361 362 363 364 365 366 367 368 369 370 371 372 373 374 375 376 377 378 379 380 381 
Resolving for y=1
start of clauseDistribution function in cuddObj.c
Resolving for y=2
start of clauseDistribution function in cuddObj.c
Resolving for y=3
start of clauseDistribution function in cuddObj.c
Resolving for y=4
start of clauseDistribution function in cuddObj.c
Resolving for y=5
start of clauseDistribution function in cuddObj.c
Resolving for y=6
start of clauseDistribution function in cuddObj.c
Resolving for y=7
start of clauseDistribution function in cuddObj.c
Resolving for y=8
start of clauseDistribution function in cuddObj.c
Resolving for y=9
start of clauseDistribution function in cuddObj.c
Resolving for y=10
start of clauseDistribution function in cuddObj.c
Resolving for y=11
start of clauseDistribution function in cuddObj.c
Resolving for y=12
start of clauseDistribution function in cuddObj.c
Resolving for y=13
start of clauseDistribution function in cuddObj.c
Resolving for y=14
start of clauseDistribution function in cuddObj.c
Resolving for y=15
start of clauseDistribution function in cuddObj.c
Resolving for y=16
start of clauseDistribution function in cuddObj.c
Resolving for y=53
start of clauseDistribution function in cuddObj.c
Resolving for y=54
start of clauseDistribution function in cuddObj.c
Resolving for y=55
start of clauseDistribution function in cuddObj.c
Resolving for y=56
start of clauseDistribution function in cuddObj.c
Resolving for y=57
start of clauseDistribution function in cuddObj.c
Resolving for y=58
start of clauseDistribution function in cuddObj.c
Resolving for y=59
start of clauseDistribution function in cuddObj.c
Resolving for y=60
start of clauseDistribution function in cuddObj.c
Resolving for y=61
start of clauseDistribution function in cuddObj.c
Resolving for y=62
start of clauseDistribution function in cuddObj.c
Resolving for y=63
start of clauseDistribution function in cuddObj.c
Resolving for y=64
start of clauseDistribution function in cuddObj.c
Resolving for y=65
start of clauseDistribution function in cuddObj.c
Resolving for y=66
start of clauseDistribution function in cuddObj.c
Resolving for y=67
start of clauseDistribution function in cuddObj.c
Resolving for y=68
start of clauseDistribution function in cuddObj.c
Resolving for y=69
start of clauseDistribution function in cuddObj.c
Resolving for y=70
start of clauseDistribution function in cuddObj.c
Resolving for y=71
start of clauseDistribution function in cuddObj.c
Resolving for y=72
start of clauseDistribution function in cuddObj.c
Resolving for y=73
start of clauseDistribution function in cuddObj.c
Resolving for y=74
start of clauseDistribution function in cuddObj.c
Resolving for y=75
start of clauseDistribution function in cuddObj.c
Resolving for y=76
start of clauseDistribution function in cuddObj.c
Resolving for y=77
start of clauseDistribution function in cuddObj.c
Resolving for y=78
start of clauseDistribution function in cuddObj.c
Resolving for y=79
start of clauseDistribution function in cuddObj.c
Resolving for y=80
start of clauseDistribution function in cuddObj.c
Resolving for y=81
start of clauseDistribution function in cuddObj.c
Resolving for y=82
start of clauseDistribution function in cuddObj.c
Resolving for y=83
start of clauseDistribution function in cuddObj.c
Resolving for y=84
start of clauseDistribution function in cuddObj.c
Resolving for y=85
start of clauseDistribution function in cuddObj.c
Resolving for y=86
start of clauseDistribution function in cuddObj.c
Resolving for y=87
start of clauseDistribution function in cuddObj.c
Resolving for y=88
start of clauseDistribution function in cuddObj.c
Resolving for y=89
start of clauseDistribution function in cuddObj.c
Resolving for y=90
start of clauseDistribution function in cuddObj.c
Resolving for y=91
start of clauseDistribution function in cuddObj.c
Resolving for y=92
start of clauseDistribution function in cuddObj.c
Resolving for y=93
start of clauseDistribution function in cuddObj.c
Resolving for y=94
start of clauseDistribution function in cuddObj.c
Resolving for y=95
start of clauseDistribution function in cuddObj.c
Resolving for y=96
start of clauseDistribution function in cuddObj.c
Resolving for y=97
start of clauseDistribution function in cuddObj.c
Resolving for y=98
start of clauseDistribution function in cuddObj.c
Resolving for y=99
start of clauseDistribution function in cuddObj.c
Resolving for y=100
start of clauseDistribution function in cuddObj.c
Resolving for y=101
start of clauseDistribution function in cuddObj.c
Resolving for y=102
start of clauseDistribution function in cuddObj.c
Resolving for y=103
start of clauseDistribution function in cuddObj.c
Resolving for y=104
start of clauseDistribution function in cuddObj.c
Resolving for y=105
start of clauseDistribution function in cuddObj.c
Resolving for y=106
start of clauseDistribution function in cuddObj.c
Resolving for y=107
start of clauseDistribution function in cuddObj.c
Resolving for y=108
start of clauseDistribution function in cuddObj.c
Resolving for y=109
start of clauseDistribution function in cuddObj.c
Resolving for y=110
start of clauseDistribution function in cuddObj.c
Resolving for y=111
start of clauseDistribution function in cuddObj.c
Resolving for y=112
start of clauseDistribution function in cuddObj.c
Resolving for y=113
start of clauseDistribution function in cuddObj.c
Resolving for y=114
start of clauseDistribution function in cuddObj.c
Resolving for y=115
start of clauseDistribution function in cuddObj.c
Resolving for y=116
start of clauseDistribution function in cuddObj.c
Resolving for y=117
start of clauseDistribution function in cuddObj.c
Resolving for y=118
start of clauseDistribution function in cuddObj.c
Resolving for y=119
start of clauseDistribution function in cuddObj.c
Resolving for y=120
start of clauseDistribution function in cuddObj.c
Resolving for y=121
start of clauseDistribution function in cuddObj.c
Resolving for y=122
start of clauseDistribution function in cuddObj.c
Resolving for y=123
start of clauseDistribution function in cuddObj.c
Resolving for y=124
start of clauseDistribution function in cuddObj.c
Resolving for y=125
start of clauseDistribution function in cuddObj.c
Resolving for y=126
start of clauseDistribution function in cuddObj.c
Resolving for y=127
start of clauseDistribution function in cuddObj.c
Resolving for y=128
start of clauseDistribution function in cuddObj.c
Resolving for y=129
start of clauseDistribution function in cuddObj.c
Resolving for y=130
start of clauseDistribution function in cuddObj.c
Resolving for y=131
start of clauseDistribution function in cuddObj.c
Resolving for y=132
start of clauseDistribution function in cuddObj.c
Resolving for y=133
start of clauseDistribution function in cuddObj.c
Resolving for y=134
start of clauseDistribution function in cuddObj.c
Resolving for y=135
start of clauseDistribution function in cuddObj.c
Resolving for y=136
start of clauseDistribution function in cuddObj.c
Resolving for y=137
start of clauseDistribution function in cuddObj.c
Resolving for y=138
start of clauseDistribution function in cuddObj.c
Resolving for y=139
start of clauseDistribution function in cuddObj.c
Resolving for y=140
start of clauseDistribution function in cuddObj.c
Resolving for y=141
start of clauseDistribution function in cuddObj.c
Resolving for y=142
start of clauseDistribution function in cuddObj.c
Resolving for y=143
start of clauseDistribution function in cuddObj.c
Resolving for y=144
start of clauseDistribution function in cuddObj.c
Resolving for y=145
start of clauseDistribution function in cuddObj.c
Resolving for y=146
start of clauseDistribution function in cuddObj.c
Resolving for y=147
start of clauseDistribution function in cuddObj.c
Resolving for y=148
start of clauseDistribution function in cuddObj.c
Resolving for y=149
start of clauseDistribution function in cuddObj.c
Resolving for y=150
start of clauseDistribution function in cuddObj.c
Resolving for y=151
start of clauseDistribution function in cuddObj.c
Resolving for y=152
start of clauseDistribution function in cuddObj.c
Resolving for y=153
start of clauseDistribution function in cuddObj.c
Resolving for y=154
start of clauseDistribution function in cuddObj.c
Resolving for y=155
start of clauseDistribution function in cuddObj.c
Resolving for y=156
start of clauseDistribution function in cuddObj.c
Resolving for y=157
start of clauseDistribution function in cuddObj.c
Resolving for y=158
start of clauseDistribution function in cuddObj.c
Resolving for y=159
start of clauseDistribution function in cuddObj.c
Resolving for y=160
start of clauseDistribution function in cuddObj.c
Resolving for y=161
start of clauseDistribution function in cuddObj.c
Resolving for y=162
start of clauseDistribution function in cuddObj.c
Resolving for y=163
start of clauseDistribution function in cuddObj.c
Resolving for y=164
start of clauseDistribution function in cuddObj.c
Resolving for y=165
start of clauseDistribution function in cuddObj.c
Resolving for y=166
start of clauseDistribution function in cuddObj.c
Resolving for y=167
start of clauseDistribution function in cuddObj.c
Resolving for y=168
start of clauseDistribution function in cuddObj.c
Resolving for y=169
start of clauseDistribution function in cuddObj.c
Resolving for y=170
start of clauseDistribution function in cuddObj.c
Resolving for y=171
start of clauseDistribution function in cuddObj.c
Resolving for y=172
start of clauseDistribution function in cuddObj.c
Resolving for y=173
start of clauseDistribution function in cuddObj.c
Resolving for y=174
start of clauseDistribution function in cuddObj.c
Resolving for y=175
start of clauseDistribution function in cuddObj.c
Resolving for y=176
start of clauseDistribution function in cuddObj.c
Resolving for y=177
start of clauseDistribution function in cuddObj.c
Resolving for y=178
start of clauseDistribution function in cuddObj.c
Resolving for y=179
start of clauseDistribution function in cuddObj.c
Resolving for y=180
start of clauseDistribution function in cuddObj.c
Resolving for y=181
start of clauseDistribution function in cuddObj.c
Resolving for y=182
start of clauseDistribution function in cuddObj.c
Resolving for y=183
start of clauseDistribution function in cuddObj.c
Resolving for y=184
start of clauseDistribution function in cuddObj.c
Resolving for y=185
start of clauseDistribution function in cuddObj.c
Resolving for y=186
start of clauseDistribution function in cuddObj.c
Resolving for y=187
start of clauseDistribution function in cuddObj.c
Resolving for y=188
start of clauseDistribution function in cuddObj.c
Resolving for y=189
start of clauseDistribution function in cuddObj.c
Resolving for y=190
start of clauseDistribution function in cuddObj.c
Resolving for y=191
start of clauseDistribution function in cuddObj.c
Resolving for y=192
start of clauseDistribution function in cuddObj.c
Resolving for y=193
start of clauseDistribution function in cuddObj.c
Resolving for y=194
start of clauseDistribution function in cuddObj.c
Resolving for y=195
start of clauseDistribution function in cuddObj.c
Resolving for y=196
start of clauseDistribution function in cuddObj.c
Resolving for y=197
start of clauseDistribution function in cuddObj.c
Resolving for y=198
start of clauseDistribution function in cuddObj.c
Resolving for y=199
start of clauseDistribution function in cuddObj.c
Resolving for y=200
start of clauseDistribution function in cuddObj.c
Resolving for y=201
start of clauseDistribution function in cuddObj.c
Resolving for y=202
start of clauseDistribution function in cuddObj.c
Resolving for y=203
start of clauseDistribution function in cuddObj.c
Resolving for y=204
start of clauseDistribution function in cuddObj.c
Resolving for y=205
start of clauseDistribution function in cuddObj.c
Resolving for y=206
start of clauseDistribution function in cuddObj.c
Resolving for y=207
start of clauseDistribution function in cuddObj.c
Resolving for y=208
start of clauseDistribution function in cuddObj.c
Resolving for y=209
start of clauseDistribution function in cuddObj.c
Resolving for y=210
start of clauseDistribution function in cuddObj.c
Resolving for y=211
start of clauseDistribution function in cuddObj.c
Resolving for y=212
start of clauseDistribution function in cuddObj.c
Resolving for y=213
start of clauseDistribution function in cuddObj.c
Resolving for y=214
start of clauseDistribution function in cuddObj.c
Resolving for y=215
start of clauseDistribution function in cuddObj.c
Resolving for y=216
start of clauseDistribution function in cuddObj.c
Resolving for y=217
start of clauseDistribution function in cuddObj.c
Resolving for y=218
start of clauseDistribution function in cuddObj.c
Resolving for y=219
start of clauseDistribution function in cuddObj.c
Resolving for y=220
start of clauseDistribution function in cuddObj.c
Resolving for y=221
start of clauseDistribution function in cuddObj.c
Resolving for y=222
start of clauseDistribution function in cuddObj.c
Resolving for y=223
start of clauseDistribution function in cuddObj.c
Resolving for y=224
start of clauseDistribution function in cuddObj.c
Resolving for y=225
start of clauseDistribution function in cuddObj.c
Resolving for y=226
start of clauseDistribution function in cuddObj.c
Resolving for y=227
start of clauseDistribution function in cuddObj.c
Resolving for y=228
start of clauseDistribution function in cuddObj.c
Resolving for y=229
start of clauseDistribution function in cuddObj.c
Resolving for y=230
start of clauseDistribution function in cuddObj.c
Resolving for y=231
start of clauseDistribution function in cuddObj.c
Resolving for y=232
start of clauseDistribution function in cuddObj.c
Resolving for y=233
start of clauseDistribution function in cuddObj.c
Resolving for y=234
start of clauseDistribution function in cuddObj.c
Resolving for y=235
start of clauseDistribution function in cuddObj.c
Resolving for y=236
start of clauseDistribution function in cuddObj.c
Resolving for y=237
start of clauseDistribution function in cuddObj.c
Resolving for y=238
start of clauseDistribution function in cuddObj.c
Resolving for y=239
start of clauseDistribution function in cuddObj.c
Resolving for y=240
start of clauseDistribution function in cuddObj.c
Resolving for y=241
start of clauseDistribution function in cuddObj.c
Resolving for y=242
start of clauseDistribution function in cuddObj.c
Resolving for y=243
start of clauseDistribution function in cuddObj.c
Resolving for y=244
start of clauseDistribution function in cuddObj.c
Resolving for y=245
start of clauseDistribution function in cuddObj.c
Resolving for y=246
start of clauseDistribution function in cuddObj.c
Resolving for y=247
start of clauseDistribution function in cuddObj.c
Resolving for y=248
start of clauseDistribution function in cuddObj.c
Resolving for y=249
start of clauseDistribution function in cuddObj.c
Resolving for y=250
start of clauseDistribution function in cuddObj.c
Resolving for y=251
start of clauseDistribution function in cuddObj.c
Resolving for y=252
start of clauseDistribution function in cuddObj.c
Resolving for y=253
start of clauseDistribution function in cuddObj.c
Resolving for y=254
start of clauseDistribution function in cuddObj.c
Resolving for y=255
start of clauseDistribution function in cuddObj.c
Resolving for y=256
start of clauseDistribution function in cuddObj.c
Resolving for y=257
start of clauseDistribution function in cuddObj.c
Resolving for y=258
start of clauseDistribution function in cuddObj.c
Resolving for y=259
start of clauseDistribution function in cuddObj.c
Resolving for y=260
start of clauseDistribution function in cuddObj.c
Resolving for y=261
start of clauseDistribution function in cuddObj.c
Resolving for y=262
start of clauseDistribution function in cuddObj.c
Resolving for y=263
start of clauseDistribution function in cuddObj.c
Resolving for y=264
start of clauseDistribution function in cuddObj.c
Resolving for y=265
start of clauseDistribution function in cuddObj.c
Resolving for y=266
start of clauseDistribution function in cuddObj.c
Resolving for y=267
start of clauseDistribution function in cuddObj.c
Resolving for y=268
start of clauseDistribution function in cuddObj.c
Resolving for y=269
start of clauseDistribution function in cuddObj.c
Resolving for y=270
start of clauseDistribution function in cuddObj.c
Resolving for y=271
start of clauseDistribution function in cuddObj.c
Resolving for y=272
start of clauseDistribution function in cuddObj.c
Resolving for y=273
start of clauseDistribution function in cuddObj.c
Resolving for y=274
start of clauseDistribution function in cuddObj.c
Resolving for y=275
start of clauseDistribution function in cuddObj.c
Resolving for y=276
start of clauseDistribution function in cuddObj.c
Resolving for y=277
start of clauseDistribution function in cuddObj.c
Resolving for y=278
start of clauseDistribution function in cuddObj.c
Resolving for y=279
start of clauseDistribution function in cuddObj.c
Resolving for y=280
start of clauseDistribution function in cuddObj.c
Resolving for y=281
start of clauseDistribution function in cuddObj.c
Resolving for y=282
start of clauseDistribution function in cuddObj.c
Resolving for y=283
start of clauseDistribution function in cuddObj.c
Resolving for y=284
start of clauseDistribution function in cuddObj.c
Resolving for y=285
start of clauseDistribution function in cuddObj.c
Resolving for y=286
start of clauseDistribution function in cuddObj.c
Resolving for y=287
start of clauseDistribution function in cuddObj.c
Resolving for y=288
start of clauseDistribution function in cuddObj.c
Resolving for y=289
start of clauseDistribution function in cuddObj.c
Resolving for y=290
start of clauseDistribution function in cuddObj.c
Resolving for y=291
start of clauseDistribution function in cuddObj.c
Resolving for y=292
start of clauseDistribution function in cuddObj.c
Resolving for y=293
start of clauseDistribution function in cuddObj.c
Resolving for y=294
start of clauseDistribution function in cuddObj.c
Resolving for y=295
start of clauseDistribution function in cuddObj.c
Resolving for y=296
start of clauseDistribution function in cuddObj.c
Resolving for y=297
start of clauseDistribution function in cuddObj.c
Resolving for y=298
start of clauseDistribution function in cuddObj.c
Resolving for y=299
start of clauseDistribution function in cuddObj.c
Resolving for y=300
start of clauseDistribution function in cuddObj.c
Resolving for y=301
start of clauseDistribution function in cuddObj.c
Resolving for y=302
start of clauseDistribution function in cuddObj.c
Resolving for y=303
start of clauseDistribution function in cuddObj.c
Resolving for y=304
start of clauseDistribution function in cuddObj.c
Resolving for y=305
start of clauseDistribution function in cuddObj.c
Resolving for y=306
start of clauseDistribution function in cuddObj.c
Resolving for y=307
start of clauseDistribution function in cuddObj.c
Resolving for y=308
start of clauseDistribution function in cuddObj.c
Resolving for y=309
start of clauseDistribution function in cuddObj.c
Resolving for y=310
start of clauseDistribution function in cuddObj.c
Resolving for y=311
start of clauseDistribution function in cuddObj.c
Resolving for y=312
start of clauseDistribution function in cuddObj.c
Resolving for y=313
start of clauseDistribution function in cuddObj.c
Resolving for y=314
start of clauseDistribution function in cuddObj.c
Resolving for y=315
start of clauseDistribution function in cuddObj.c
Resolving for y=316
start of clauseDistribution function in cuddObj.c
Resolving for y=317
start of clauseDistribution function in cuddObj.c
Resolving for y=318
start of clauseDistribution function in cuddObj.c
Resolving for y=319
start of clauseDistribution function in cuddObj.c
Resolving for y=320
start of clauseDistribution function in cuddObj.c
Resolving for y=321
start of clauseDistribution function in cuddObj.c
Resolving for y=322
start of clauseDistribution function in cuddObj.c
Resolving for y=323
start of clauseDistribution function in cuddObj.c
Resolving for y=324
start of clauseDistribution function in cuddObj.c
Resolving for y=325
start of clauseDistribution function in cuddObj.c
Resolving for y=326
start of clauseDistribution function in cuddObj.c
Resolving for y=327
start of clauseDistribution function in cuddObj.c
Resolving for y=328
start of clauseDistribution function in cuddObj.c
Resolving for y=329
start of clauseDistribution function in cuddObj.c
Resolving for y=330
start of clauseDistribution function in cuddObj.c
Resolving for y=331
start of clauseDistribution function in cuddObj.c
Resolving for y=332
start of clauseDistribution function in cuddObj.c
Resolving for y=333
start of clauseDistribution function in cuddObj.c
Resolving for y=334
start of clauseDistribution function in cuddObj.c
Resolving for y=335
start of clauseDistribution function in cuddObj.c
Resolving for y=336
start of clauseDistribution function in cuddObj.c
Resolving for y=337
start of clauseDistribution function in cuddObj.c
Resolving for y=338
start of clauseDistribution function in cuddObj.c
Resolving for y=339
start of clauseDistribution function in cuddObj.c
Resolving for y=340
start of clauseDistribution function in cuddObj.c
Resolving for y=341
start of clauseDistribution function in cuddObj.c
Resolving for y=342
start of clauseDistribution function in cuddObj.c
Resolving for y=343
start of clauseDistribution function in cuddObj.c
Resolving for y=344
start of clauseDistribution function in cuddObj.c
Resolving for y=345
start of clauseDistribution function in cuddObj.c
Resolving for y=346
start of clauseDistribution function in cuddObj.c
Resolving for y=347
start of clauseDistribution function in cuddObj.c
Resolving for y=348
start of clauseDistribution function in cuddObj.c
Resolving for y=349
start of clauseDistribution function in cuddObj.c
Resolving for y=350
start of clauseDistribution function in cuddObj.c
Resolving for y=351
start of clauseDistribution function in cuddObj.c
Resolving for y=352
start of clauseDistribution function in cuddObj.c
Resolving for y=353
start of clauseDistribution function in cuddObj.c
Resolving for y=354
start of clauseDistribution function in cuddObj.c
Resolving for y=355
start of clauseDistribution function in cuddObj.c
Resolving for y=356
start of clauseDistribution function in cuddObj.c
Resolving for y=357
start of clauseDistribution function in cuddObj.c
Resolving for y=358
start of clauseDistribution function in cuddObj.c
Resolving for y=359
start of clauseDistribution function in cuddObj.c
Resolving for y=360
start of clauseDistribution function in cuddObj.c
Resolving for y=361
start of clauseDistribution function in cuddObj.c
Resolving for y=362
start of clauseDistribution function in cuddObj.c
Resolving for y=363
start of clauseDistribution function in cuddObj.c
Resolving for y=364
start of clauseDistribution function in cuddObj.c
Resolving for y=365
start of clauseDistribution function in cuddObj.c
Resolving for y=366
start of clauseDistribution function in cuddObj.c
Resolving for y=367
start of clauseDistribution function in cuddObj.c
Resolving for y=368
start of clauseDistribution function in cuddObj.c
Resolving for y=369
start of clauseDistribution function in cuddObj.c
Resolving for y=370
start of clauseDistribution function in cuddObj.c
Resolving for y=371
start of clauseDistribution function in cuddObj.c
Resolving for y=372
start of clauseDistribution function in cuddObj.c
Resolving for y=373
start of clauseDistribution function in cuddObj.c
Resolving for y=374
start of clauseDistribution function in cuddObj.c
Resolving for y=375
start of clauseDistribution function in cuddObj.c
Resolving for y=376
start of clauseDistribution function in cuddObj.c
Resolving for y=377
start of clauseDistribution function in cuddObj.c
Resolving for y=378
start of clauseDistribution function in cuddObj.c
Resolving for y=379
start of clauseDistribution function in cuddObj.c
Resolving for y=380
start of clauseDistribution function in cuddObj.c
Resolving for y=381
start of clauseDistribution function in cuddObj.c
RESOLVING Scope: 17 18 19 20 21 22 23 24 25 26 27 28 29 30 31 32 33 34 35 36 37 38 39 40 41 42 43 44 45 46 47 48 49 50 51 52 
Resolving for y=17
start of clauseDistribution function in cuddObj.c
Resolving for y=18
start of clauseDistribution function in cuddObj.c
Resolving for y=19
start of clauseDistribution function in cuddObj.c
Resolving for y=20
start of clauseDistribution function in cuddObj.c
Resolving for y=21
start of clauseDistribution function in cuddObj.c
Resolving for y=22
start of clauseDistribution function in cuddObj.c
Resolving for y=23
start of clauseDistribution function in cuddObj.c
Resolving for y=24
start of clauseDistribution function in cuddObj.c
Resolving for y=25
start of clauseDistribution function in cuddObj.c
Resolving for y=26
start of clauseDistribution function in cuddObj.c
Resolving for y=27
start of clauseDistribution function in cuddObj.c
Resolving for y=28
start of clauseDistribution function in cuddObj.c
Resolving for y=29
start of clauseDistribution function in cuddObj.c
Resolving for y=30
start of clauseDistribution function in cuddObj.c
Resolving for y=31
start of clauseDistribution function in cuddObj.c
Resolving for y=32
start of clauseDistribution function in cuddObj.c
Resolving for y=33
start of clauseDistribution function in cuddObj.c
Resolving for y=34
start of clauseDistribution function in cuddObj.c
Resolving for y=35
start of clauseDistribution function in cuddObj.c
Resolving for y=36
start of clauseDistribution function in cuddObj.c
Resolving for y=37
start of clauseDistribution function in cuddObj.c
Resolving for y=38
start of clauseDistribution function in cuddObj.c
Resolving for y=39
start of clauseDistribution function in cuddObj.c
Resolving for y=40
start of clauseDistribution function in cuddObj.c
Resolving for y=41
start of clauseDistribution function in cuddObj.c
Resolving for y=42
start of clauseDistribution function in cuddObj.c
Resolving for y=43
start of clauseDistribution function in cuddObj.c
Resolving for y=44
start of clauseDistribution function in cuddObj.c
Resolving for y=45
start of clauseDistribution function in cuddObj.c
Resolving for y=46
start of clauseDistribution function in cuddObj.c
Resolving for y=47
start of clauseDistribution function in cuddObj.c
Resolving for y=48
start of clauseDistribution function in cuddObj.c
Resolving for y=49
start of clauseDistribution function in cuddObj.c
Resolving for y=50
start of clauseDistribution function in cuddObj.c
Resolving for y=51
start of clauseDistribution function in cuddObj.c
Resolving for y=52
start of clauseDistribution function in cuddObj.c
